p tw 432 2080
1 33
2 34
3 35
4 36
5 37
6 38
7 39
8 40
9 41
10 42
11 43
12 44
13 45
14 46
15 47
16 48
17 49
18 50
19 51
20 52
21 53
22 54
23 55
24 56
25 57
26 58
27 59
28 60
29 61
30 62
31 63
32 64
33 113
33 117
33 118
33 119
33 120
33 121
34 81
34 102
34 120
34 149
34 174
34 176
35 65
35 104
35 109
35 110
35 111
35 112
36 124
36 152
36 155
36 162
36 163
36 164
37 80
37 140
37 147
37 167
37 169
37 170
38 77
38 78
38 79
38 80
38 81
38 82
39 68
39 95
39 123
39 142
39 145
39 146
40 105
40 122
40 136
40 139
40 140
40 141
41 69
41 79
41 115
41 139
41 158
41 161
42 119
42 134
42 145
42 153
42 167
42 168
43 83
43 89
43 90
43 91
43 92
43 93
44 73
44 100
44 151
44 155
44 156
44 157
45 84
45 89
45 94
45 95
45 96
45 97
46 78
46 86
46 126
46 130
46 131
46 132
47 114
47 143
47 151
47 152
47 153
47 154
48 90
48 99
48 126
48 127
48 128
48 129
49 83
49 84
49 85
49 86
49 87
49 88
50 71
50 72
50 73
50 74
50 75
50 76
51 110
51 118
51 130
51 158
51 159
51 160
52 67
52 117
52 127
52 136
52 137
52 138
53 72
53 133
53 137
53 142
53 143
53 144
54 85
54 94
54 122
54 123
54 124
54 125
55 74
55 131
55 159
55 162
55 165
55 166
56 65
56 66
56 67
56 68
56 69
56 70
57 92
57 109
57 147
57 148
57 149
57 150
58 71
58 98
58 113
58 114
58 115
58 116
59 75
59 128
59 148
59 165
59 171
59 173
60 77
60 104
60 105
60 106
60 107
60 108
61 66
61 87
61 91
61 133
61 134
61 135
62 98
62 99
62 100
62 101
62 102
62 103
63 106
63 156
63 163
63 169
63 171
63 172
64 96
64 101
64 107
64 111
64 174
64 175
65 66
65 67
65 68
65 69
65 70
65 104
65 109
65 110
65 111
65 112
66 67
66 68
66 69
66 70
66 87
66 91
66 133
66 134
66 135
67 68
67 69
67 70
67 117
67 127
67 136
67 137
67 138
68 69
68 70
68 95
68 123
68 142
68 145
68 146
69 70
69 79
69 115
69 139
69 158
69 161
70 177
70 178
70 179
70 180
70 181
70 182
71 72
71 73
71 74
71 75
71 76
71 98
71 113
71 114
71 115
71 116
72 73
72 74
72 75
72 76
72 133
72 137
72 142
72 143
72 144
73 74
73 75
73 76
73 100
73 151
73 155
73 156
73 157
74 75
74 76
74 131
74 159
74 162
74 165
74 166
75 76
75 128
75 148
75 165
75 171
75 173
76 183
76 184
76 185
76 186
76 187
76 188
77 78
77 79
77 80
77 81
77 82
77 104
77 105
77 106
77 107
77 108
78 79
78 80
78 81
78 82
78 86
78 126
78 130
78 131
78 132
79 80
79 81
79 82
79 115
79 139
79 158
79 161
80 81
80 82
80 140
80 147
80 167
80 169
80 170
81 82
81 102
81 120
81 149
81 174
81 176
82 189
82 190
82 191
82 192
82 193
82 194
83 84
83 85
83 86
83 87
83 88
83 89
83 90
83 91
83 92
83 93
84 85
84 86
84 87
84 88
84 89
84 94
84 95
84 96
84 97
85 86
85 87
85 88
85 94
85 122
85 123
85 124
85 125
86 87
86 88
86 126
86 130
86 131
86 132
87 88
87 91
87 133
87 134
87 135
88 195
88 196
88 197
88 198
88 199
88 200
89 90
89 91
89 92
89 93
89 94
89 95
89 96
89 97
90 91
90 92
90 93
90 99
90 126
90 127
90 128
90 129
91 92
91 93
91 133
91 134
91 135
92 93
92 109
92 147
92 148
92 149
92 150
93 195
93 201
93 202
93 203
93 204
93 205
94 95
94 96
94 97
94 122
94 123
94 124
94 125
95 96
95 97
95 123
95 142
95 145
95 146
96 97
96 101
96 107
96 111
96 174
96 175
97 196
97 201
97 206
97 207
97 208
97 209
98 99
98 100
98 101
98 102
98 103
98 113
98 114
98 115
98 116
99 100
99 101
99 102
99 103
99 126
99 127
99 128
99 129
100 101
100 102
100 103
100 151
100 155
100 156
100 157
101 102
101 103
101 107
101 111
101 174
101 175
102 103
102 120
102 149
102 174
102 176
103 210
103 211
103 212
103 213
103 214
103 215
104 105
104 106
104 107
104 108
104 109
104 110
104 111
104 112
105 106
105 107
105 108
105 122
105 136
105 139
105 140
105 141
106 107
106 108
106 156
106 163
106 169
106 171
106 172
107 108
107 111
107 174
107 175
108 189
108 216
108 217
108 218
108 219
108 220
109 110
109 111
109 112
109 147
109 148
109 149
109 150
110 111
110 112
110 118
110 130
110 158
110 159
110 160
111 112
111 174
111 175
112 177
112 216
112 221
112 222
112 223
112 224
113 114
113 115
113 116
113 117
113 118
113 119
113 120
113 121
114 115
114 116
114 143
114 151
114 152
114 153
114 154
115 116
115 139
115 158
115 161
116 183
116 210
116 225
116 226
116 227
116 228
117 118
117 119
117 120
117 121
117 127
117 136
117 137
117 138
118 119
118 120
118 121
118 130
118 158
118 159
118 160
119 120
119 121
119 134
119 145
119 153
119 167
119 168
120 121
120 149
120 174
120 176
121 225
121 229
121 230
121 231
121 232
121 233
122 123
122 124
122 125
122 136
122 139
122 140
122 141
123 124
123 125
123 142
123 145
123 146
124 125
124 152
124 155
124 162
124 163
124 164
125 197
125 206
125 234
125 235
125 236
125 237
126 127
126 128
126 129
126 130
126 131
126 132
127 128
127 129
127 136
127 137
127 138
128 129
128 148
128 165
128 171
128 173
129 202
129 211
129 238
129 239
129 240
129 241
130 131
130 132
130 158
130 159
130 160
131 132
131 159
131 162
131 165
131 166
132 190
132 198
132 238
132 242
132 243
132 244
133 134
133 135
133 137
133 142
133 143
133 144
134 135
134 145
134 153
134 167
134 168
135 178
135 199
135 203
135 245
135 246
135 247
136 137
136 138
136 139
136 140
136 141
137 138
137 142
137 143
137 144
138 179
138 229
138 239
138 248
138 249
138 250
139 140
139 141
139 158
139 161
140 141
140 147
140 167
140 169
140 170
141 217
141 234
141 248
141 251
141 252
141 253
142 143
142 144
142 145
142 146
143 144
143 151
143 152
143 153
143 154
144 184
144 245
144 249
144 254
144 255
144 256
145 146
145 153
145 167
145 168
146 180
146 207
146 235
146 254
146 257
146 258
147 148
147 149
147 150
147 167
147 169
147 170
148 149
148 150
148 165
148 171
148 173
149 150
149 174
149 176
150 204
150 221
150 259
150 260
150 261
150 262
151 152
151 153
151 154
151 155
151 156
151 157
152 153
152 154
152 155
152 162
152 163
152 164
153 154
153 167
153 168
154 226
154 255
154 263
154 264
154 265
154 266
155 156
155 157
155 162
155 163
155 164
156 157
156 163
156 169
156 171
156 172
157 185
157 212
157 263
157 267
157 268
157 269
158 159
158 160
158 161
159 160
159 162
159 165
159 166
160 222
160 230
160 242
160 270
160 271
160 272
161 181
161 191
161 227
161 251
161 270
161 273
162 163
162 164
162 165
162 166
163 164
163 169
163 171
163 172
164 236
164 264
164 267
164 274
164 275
164 276
165 166
165 171
165 173
166 186
166 243
166 271
166 274
166 277
166 278
167 168
167 169
167 170
168 231
168 246
168 257
168 265
168 279
168 280
169 170
169 171
169 172
170 192
170 252
170 259
170 279
170 281
170 282
171 172
171 173
172 218
172 268
172 275
172 281
172 283
172 284
173 187
173 240
173 260
173 277
173 283
173 285
174 175
174 176
175 208
175 213
175 219
175 223
175 286
175 287
176 193
176 214
176 232
176 261
176 286
176 288
177 178
177 179
177 180
177 181
177 182
177 216
177 221
177 222
177 223
177 224
178 179
178 180
178 181
178 182
178 199
178 203
178 245
178 246
178 247
179 180
179 181
179 182
179 229
179 239
179 248
179 249
179 250
180 181
180 182
180 207
180 235
180 254
180 257
180 258
181 182
181 191
181 227
181 251
181 270
181 273
182 289
182 290
182 291
182 292
182 293
182 294
183 184
183 185
183 186
183 187
183 188
183 210
183 225
183 226
183 227
183 228
184 185
184 186
184 187
184 188
184 245
184 249
184 254
184 255
184 256
185 186
185 187
185 188
185 212
185 263
185 267
185 268
185 269
186 187
186 188
186 243
186 271
186 274
186 277
186 278
187 188
187 240
187 260
187 277
187 283
187 285
188 295
188 296
188 297
188 298
188 299
188 300
189 190
189 191
189 192
189 193
189 194
189 216
189 217
189 218
189 219
189 220
190 191
190 192
190 193
190 194
190 198
190 238
190 242
190 243
190 244
191 192
191 193
191 194
191 227
191 251
191 270
191 273
192 193
192 194
192 252
192 259
192 279
192 281
192 282
193 194
193 214
193 232
193 261
193 286
193 288
194 301
194 302
194 303
194 304
194 305
194 306
195 196
195 197
195 198
195 199
195 200
195 201
195 202
195 203
195 204
195 205
196 197
196 198
196 199
196 200
196 201
196 206
196 207
196 208
196 209
197 198
197 199
197 200
197 206
197 234
197 235
197 236
197 237
198 199
198 200
198 238
198 242
198 243
198 244
199 200
199 203
199 245
199 246
199 247
200 307
200 308
200 309
200 310
200 311
200 312
201 202
201 203
201 204
201 205
201 206
201 207
201 208
201 209
202 203
202 204
202 205
202 211
202 238
202 239
202 240
202 241
203 204
203 205
203 245
203 246
203 247
204 205
204 221
204 259
204 260
204 261
204 262
205 307
205 313
205 314
205 315
205 316
205 317
206 207
206 208
206 209
206 234
206 235
206 236
206 237
207 208
207 209
207 235
207 254
207 257
207 258
208 209
208 213
208 219
208 223
208 286
208 287
209 308
209 313
209 318
209 319
209 320
209 321
210 211
210 212
210 213
210 214
210 215
210 225
210 226
210 227
210 228
211 212
211 213
211 214
211 215
211 238
211 239
211 240
211 241
212 213
212 214
212 215
212 263
212 267
212 268
212 269
213 214
213 215
213 219
213 223
213 286
213 287
214 215
214 232
214 261
214 286
214 288
215 322
215 323
215 324
215 325
215 326
215 327
216 217
216 218
216 219
216 220
216 221
216 222
216 223
216 224
217 218
217 219
217 220
217 234
217 248
217 251
217 252
217 253
218 219
218 220
218 268
218 275
218 281
218 283
218 284
219 220
219 223
219 286
219 287
220 301
220 328
220 329
220 330
220 331
220 332
221 222
221 223
221 224
221 259
221 260
221 261
221 262
222 223
222 224
222 230
222 242
222 270
222 271
222 272
223 224
223 286
223 287
224 289
224 328
224 333
224 334
224 335
224 336
225 226
225 227
225 228
225 229
225 230
225 231
225 232
225 233
226 227
226 228
226 255
226 263
226 264
226 265
226 266
227 228
227 251
227 270
227 273
228 295
228 322
228 337
228 338
228 339
228 340
229 230
229 231
229 232
229 233
229 239
229 248
229 249
229 250
230 231
230 232
230 233
230 242
230 270
230 271
230 272
231 232
231 233
231 246
231 257
231 265
231 279
231 280
232 233
232 261
232 286
232 288
233 337
233 341
233 342
233 343
233 344
233 345
234 235
234 236
234 237
234 248
234 251
234 252
234 253
235 236
235 237
235 254
235 257
235 258
236 237
236 264
236 267
236 274
236 275
236 276
237 309
237 318
237 346
237 347
237 348
237 349
238 239
238 240
238 241
238 242
238 243
238 244
239 240
239 241
239 248
239 249
239 250
240 241
240 260
240 277
240 283
240 285
241 314
241 323
241 350
241 351
241 352
241 353
242 243
242 244
242 270
242 271
242 272
243 244
243 271
243 274
243 277
243 278
244 302
244 310
244 350
244 354
244 355
244 356
245 246
245 247
245 249
245 254
245 255
245 256
246 247
246 257
246 265
246 279
246 280
247 290
247 311
247 315
247 357
247 358
247 359
248 249
248 250
248 251
248 252
248 253
249 250
249 254
249 255
249 256
250 291
250 341
250 351
250 360
250 361
250 362
251 252
251 253
251 270
251 273
252 253
252 259
252 279
252 281
252 282
253 329
253 346
253 360
253 363
253 364
253 365
254 255
254 256
254 257
254 258
255 256
255 263
255 264
255 265
255 266
256 296
256 357
256 361
256 366
256 367
256 368
257 258
257 265
257 279
257 280
258 292
258 319
258 347
258 366
258 369
258 370
259 260
259 261
259 262
259 279
259 281
259 282
260 261
260 262
260 277
260 283
260 285
261 262
261 286
261 288
262 316
262 333
262 371
262 372
262 373
262 374
263 264
263 265
263 266
263 267
263 268
263 269
264 265
264 266
264 267
264 274
264 275
264 276
265 266
265 279
265 280
266 338
266 367
266 375
266 376
266 377
266 378
267 268
267 269
267 274
267 275
267 276
268 269
268 275
268 281
268 283
268 284
269 297
269 324
269 375
269 379
269 380
269 381
270 271
270 272
270 273
271 272
271 274
271 277
271 278
272 334
272 342
272 354
272 382
272 383
272 384
273 293
273 303
273 339
273 363
273 382
273 385
274 275
274 276
274 277
274 278
275 276
275 281
275 283
275 284
276 348
276 376
276 379
276 386
276 387
276 388
277 278
277 283
277 285
278 298
278 355
278 383
278 386
278 389
278 390
279 280
279 281
279 282
280 343
280 358
280 369
280 377
280 391
280 392
281 282
281 283
281 284
282 304
282 364
282 371
282 391
282 393
282 394
283 284
283 285
284 330
284 380
284 387
284 393
284 395
284 396
285 299
285 352
285 372
285 389
285 395
285 397
286 287
286 288
287 320
287 325
287 331
287 335
287 398
287 399
288 305
288 326
288 344
288 373
288 398
288 400
289 290
289 291
289 292
289 293
289 294
289 328
289 333
289 334
289 335
289 336
290 291
290 292
290 293
290 294
290 311
290 315
290 357
290 358
290 359
291 292
291 293
291 294
291 341
291 351
291 360
291 361
291 362
292 293
292 294
292 319
292 347
292 366
292 369
292 370
293 294
293 303
293 339
293 363
293 382
293 385
294 409
295 296
295 297
295 298
295 299
295 300
295 322
295 337
295 338
295 339
295 340
296 297
296 298
296 299
296 300
296 357
296 361
296 366
296 367
296 368
297 298
297 299
297 300
297 324
297 375
297 379
297 380
297 381
298 299
298 300
298 355
298 383
298 386
298 389
298 390
299 300
299 352
299 372
299 389
299 395
299 397
300 415
301 302
301 303
301 304
301 305
301 306
301 328
301 329
301 330
301 331
301 332
302 303
302 304
302 305
302 306
302 310
302 350
302 354
302 355
302 356
303 304
303 305
303 306
303 339
303 363
303 382
303 385
304 305
304 306
304 364
304 371
304 391
304 393
304 394
305 306
305 326
305 344
305 373
305 398
305 400
306 427
307 308
307 309
307 310
307 311
307 312
307 313
307 314
307 315
307 316
307 317
308 309
308 310
308 311
308 312
308 313
308 318
308 319
308 320
308 321
309 310
309 311
309 312
309 318
309 346
309 347
309 348
309 349
310 311
310 312
310 350
310 354
310 355
310 356
311 312
311 315
311 357
311 358
311 359
312 416
313 314
313 315
313 316
313 317
313 318
313 319
313 320
313 321
314 315
314 316
314 317
314 323
314 350
314 351
314 352
314 353
315 316
315 317
315 357
315 358
315 359
316 317
316 333
316 371
316 372
316 373
316 374
317 422
318 319
318 320
318 321
318 346
318 347
318 348
318 349
319 320
319 321
319 347
319 366
319 369
319 370
320 321
320 325
320 331
320 335
320 398
320 399
321 420
322 323
322 324
322 325
322 326
322 327
322 337
322 338
322 339
322 340
323 324
323 325
323 326
323 327
323 350
323 351
323 352
323 353
324 325
324 326
324 327
324 375
324 379
324 380
324 381
325 326
325 327
325 331
325 335
325 398
325 399
326 327
326 344
326 373
326 398
326 400
327 403
328 329
328 330
328 331
328 332
328 333
328 334
328 335
328 336
329 330
329 331
329 332
329 346
329 360
329 363
329 364
329 365
330 331
330 332
330 380
330 387
330 393
330 395
330 396
331 332
331 335
331 398
331 399
332 405
333 334
333 335
333 336
333 371
333 372
333 373
333 374
334 335
334 336
334 342
334 354
334 382
334 383
334 384
335 336
335 398
335 399
336 430
337 338
337 339
337 340
337 341
337 342
337 343
337 344
337 345
338 339
338 340
338 367
338 375
338 376
338 377
338 378
339 340
339 363
339 382
339 385
340 407
341 342
341 343
341 344
341 345
341 351
341 360
341 361
341 362
342 343
342 344
342 345
342 354
342 382
342 383
342 384
343 344
343 345
343 358
343 369
343 377
343 391
343 392
344 345
344 373
344 398
344 400
345 432
346 347
346 348
346 349
346 360
346 363
346 364
346 365
347 348
347 349
347 366
347 369
347 370
348 349
348 376
348 379
348 386
348 387
348 388
349 411
350 351
350 352
350 353
350 354
350 355
350 356
351 352
351 353
351 360
351 361
351 362
352 353
352 372
352 389
352 395
352 397
353 417
354 355
354 356
354 382
354 383
354 384
355 356
355 383
355 386
355 389
355 390
356 419
357 358
357 359
357 361
357 366
357 367
357 368
358 359
358 369
358 377
358 391
358 392
359 404
360 361
360 362
360 363
360 364
360 365
361 362
361 366
361 367
361 368
362 413
363 364
363 365
363 382
363 385
364 365
364 371
364 391
364 393
364 394
365 425
366 367
366 368
366 369
366 370
367 368
367 375
367 376
367 377
367 378
368 412
369 370
369 377
369 391
369 392
370 426
371 372
371 373
371 374
371 391
371 393
371 394
372 373
372 374
372 389
372 395
372 397
373 374
373 398
373 400
374 408
375 376
375 377
375 378
375 379
375 380
375 381
376 377
376 378
376 379
376 386
376 387
376 388
377 378
377 391
377 392
378 418
379 380
379 381
379 386
379 387
379 388
380 381
380 387
380 393
380 395
380 396
381 421
382 383
382 384
382 385
383 384
383 386
383 389
383 390
384 414
385 424
386 387
386 388
386 389
386 390
387 388
387 393
387 395
387 396
388 429
389 390
389 395
389 397
390 410
391 392
391 393
391 394
392 423
393 394
393 395
393 396
394 428
395 396
395 397
396 402
397 406
398 399
398 400
399 401
400 431
